# Node Net
560   1
 64   1
 16   1
 30   1
6374   1
4241   2
4961   2
4161   2
 67   2
6361   2
 35   3
  3   3
4880   3
6390   3
1521   3
2480   4
6340   4
6080   4
 46   4
 59   4
6372   5
2960   5
1761   5
3041   5
  7   6
1440   6
5680   6
4560   6
 25   7
3761   7
3601   7
 37   7
6381   8
6373   8
2080   8
 17   9
6384   9
 74   9
 68  10
6350  10
480  11
160  11
 39  12
6324  12
 70  13
801  13
 15  14
 65  14
